N = 50;
MinK = 5;
Capacity = 200;

Scale = 10;
DistanceRoundingMode = Floor;
X = array1d(0..N, [40, 45, 45, 42, 42, 42, 40, 40, 38, 38, 35, 35, 25, 22, 22, 20, 20, 18, 15, 15, 30, 30, 28, 28, 25, 25, 25, 23, 23, 20, 20, 10, 10, 8, 8, 5, 5, 2, 0, 0, 35, 35, 33, 33, 32, 30, 30, 30, 28, 28, 26]);
Y = array1d(0..N, [50, 68, 70, 66, 68, 65, 69, 66, 68, 70, 66, 69, 85, 75, 85, 80, 85, 75, 75, 80, 50, 52, 52, 55, 50, 52, 55, 52, 55, 50, 55, 35, 40, 40, 45, 35, 45, 40, 40, 45, 30, 32, 32, 35, 30, 30, 32, 35, 30, 35, 32]);

Demands = array1d(1..N, [10, 30, 10, 10, 10, 20, 20, 20, 10, 10, 10, 20, 30, 10, 40, 40, 20, 20, 10, 10, 20, 20, 10, 10, 40, 10, 10, 20, 10, 10, 20, 30, 40, 20, 10, 10, 20, 30, 20, 10, 10, 20, 10, 10, 10, 30, 10, 10, 10, 10]);

ServiceTimes = array1d(1..N, [90, 90, 90, 90, 90, 90, 90, 90, 90, 90, 90, 90, 90, 90, 90, 90, 90, 90, 90, 90, 90, 90, 90, 90, 90, 90, 90, 90, 90, 90, 90, 90, 90, 90, 90, 90, 90, 90, 90, 90, 90, 90, 90, 90, 90, 90, 90, 90, 90, 90]);

TimeWindows = array2d(1..2, 0..N, [|
     0,  760,  668,  16, 575,  15, 482,  18, 110, 390, 204, 297, 507,  30, 414, 227, 322,  33,  37, 132,  10,  760,  668, 575,  15,  17, 482, 109, 390, 202, 297,  39,  31,  33, 604, 134, 511, 229, 321, 416, 113,  21,  19,  16, 206, 391, 299,  767, 483,  766,  668 |
  1236, 1120, 1028, 376, 935, 375, 842, 378, 470, 750, 564, 657, 867, 390, 774, 587, 682, 393, 397, 492, 370, 1120, 1028, 935, 375, 377, 842, 469, 750, 562, 657, 399, 391, 393, 964, 494, 871, 589, 681, 776, 473, 381, 379, 376, 566, 751, 659, 1127, 843, 1126, 1028
|]);
